p tw 608 692
1 37
1 537
2 38
2 538
3 55
3 539
4 56
4 540
5 39
5 541
6 40
6 542
7 57
7 543
8 58
8 544
9 41
9 545
10 42
10 546
11 59
11 547
12 60
12 548
13 43
13 549
14 44
14 550
15 61
15 551
16 62
16 552
17 45
17 553
18 46
18 554
19 63
19 555
20 64
20 556
21 47
21 557
22 48
22 558
23 65
23 559
24 66
24 560
25 49
25 561
26 50
26 562
27 67
27 563
28 68
28 564
29 51
29 565
30 52
30 566
31 69
31 567
32 70
32 568
33 53
33 569
34 54
34 570
35 71
35 571
36 72
36 572
37 38
37 85
38 86
39 40
39 87
40 88
41 42
41 77
42 89
43 44
43 74
44 90
45 46
45 82
46 91
47 48
47 92
48 79
49 50
49 93
50 76
51 52
51 94
52 84
53 54
53 95
54 96
55 98
56 154
57 73
58 156
59 81
60 158
61 78
62 135
63 161
64 75
65 104
66 83
67 106
68 80
69 128
70 168
71 108
72 170
73 74
73 112
74 114
75 76
75 117
76 105
77 78
77 113
78 102
79 80
79 103
80 121
81 82
81 100
82 115
83 84
83 119
84 123
85 109
86 97
87 110
88 111
89 99
90 101
91 116
92 118
93 120
94 122
95 124
96 107
97 98
97 143
98 131
99 100
99 144
100 138
101 102
101 129
102 146
103 104
103 136
104 148
105 106
105 149
106 133
107 108
107 152
108 140
109 125
110 137
111 255
112 126
113 132
114 145
115 147
116 141
117 130
118 188
119 142
120 127
121 150
122 139
123 151
124 134
125 126
125 171
126 155
127 128
127 179
128 167
129 130
129 176
130 162
131 132
131 153
132 174
133 134
133 165
134 182
135 136
135 160
136 178
137 138
137 173
138 157
139 140
139 181
140 169
141 142
141 177
142 164
143 172
144 175
145 241
146 159
147 218
148 163
149 180
150 166
151 257
152 183
153 154
153 197
154 198
155 156
155 200
156 186
157 158
157 202
158 194
159 160
159 203
160 191
161 162
161 184
162 204
163 164
163 192
164 206
165 166
165 189
166 207
167 168
167 208
168 209
169 170
169 211
170 212
171 196
172 243
173 199
174 201
175 190
176 187
177 195
178 205
179 185
180 245
181 193
182 210
183 252
184 185
184 233
185 236
186 187
186 215
187 230
188 189
188 220
189 237
190 191
190 227
191 217
192 193
192 234
193 222
194 195
194 229
195 232
196 269
197 225
198 213
199 214
200 226
201 216
202 228
203 231
204 219
205 280
206 235
207 221
208 238
209 223
210 224
211 239
212 240
213 214
213 249
214 259
215 216
215 244
216 260
217 218
217 262
218 253
219 220
219 264
220 248
221 222
221 251
222 267
223 224
223 246
224 268
225 330
226 298
227 250
228 306
229 256
230 261
231 247
232 263
233 242
234 254
235 308
236 265
237 266
238 360
239 340
240 258
241 242
241 275
242 292
243 244
243 270
244 288
245 246
245 282
246 296
247 248
247 290
248 279
249 250
249 287
250 274
251 252
251 295
252 286
253 254
253 277
254 294
255 256
255 272
256 289
257 258
257 284
258 297
259 271
260 273
261 276
262 291
263 278
264 293
265 281
266 338
267 283
268 285
269 270
269 310
270 311
271 272
271 313
272 314
273 274
273 302
274 316
275 276
275 299
276 318
277 278
277 307
278 319
279 280
279 321
280 304
281 282
281 323
282 301
283 284
283 324
284 309
285 286
285 326
286 327
287 312
288 315
289 317
290 303
291 367
292 320
293 300
294 322
295 305
296 325
297 328
298 299
298 344
299 346
300 301
300 349
301 337
302 303
302 345
303 334
304 305
304 335
305 353
306 307
306 332
307 347
308 309
308 351
309 355
310 341
311 329
312 386
313 342
314 343
315 388
316 331
317 390
318 333
319 348
320 393
321 350
322 336
323 352
324 354
325 400
326 356
327 339
328 402
329 330
329 375
330 363
331 332
331 376
332 370
333 334
333 361
334 378
335 336
335 368
336 380
337 338
337 381
338 365
339 340
339 384
340 372
341 357
342 369
343 487
344 358
345 364
346 377
347 379
348 373
349 362
350 420
351 374
352 359
353 382
354 371
355 383
356 366
357 358
357 403
358 387
359 360
359 411
360 399
361 362
361 408
362 394
363 364
363 385
364 406
365 366
365 397
366 414
367 368
367 392
368 410
369 370
369 405
370 389
371 372
371 413
372 401
373 374
373 409
374 396
375 404
376 407
377 473
378 391
379 450
380 395
381 412
382 398
383 489
384 415
385 386
385 429
386 430
387 388
387 432
388 418
389 390
389 434
390 426
391 392
391 435
392 423
393 394
393 416
394 436
395 396
395 424
396 438
397 398
397 421
398 439
399 400
399 440
400 441
401 402
401 443
402 444
403 428
404 475
405 431
406 433
407 422
408 419
409 427
410 437
411 417
412 477
413 425
414 442
415 484
416 417
416 465
417 468
418 419
418 447
419 462
420 421
420 452
421 469
422 423
422 459
423 449
424 425
424 466
425 454
426 427
426 461
427 464
428 501
429 457
430 445
431 446
432 458
433 448
434 460
435 463
436 451
437 522
438 467
439 453
440 470
441 455
442 456
443 471
444 472
445 446
445 481
446 491
447 448
447 476
448 492
449 450
449 494
450 485
451 452
451 496
452 480
453 454
453 483
454 499
455 456
455 478
456 500
457 503
458 507
459 482
460 511
461 488
462 493
463 479
464 495
465 474
466 486
467 524
468 497
469 498
470 531
471 535
472 490
473 474
473 513
474 519
475 476
475 502
476 508
477 478
477 526
478 532
479 480
479 515
480 521
481 482
481 504
482 510
483 484
483 528
484 534
485 486
485 517
486 523
487 488
487 506
488 512
489 490
489 530
490 536
491 505
492 509
493 514
494 516
495 518
496 520
497 525
498 527
499 529
500 533
501 573
502 574
503 575
504 576
505 577
506 578
507 579
508 580
509 581
510 582
511 583
512 584
513 585
514 586
515 587
516 588
517 589
518 590
519 591
520 592
521 593
522 594
523 595
524 596
525 597
526 598
527 599
528 600
529 601
530 602
531 603
532 604
533 605
534 606
535 607
536 608
